
Gurobi 7.0.1 (linux64) logging started Sun Jul  2 21:29:14 2017

Optimize a model with 28874 rows, 14464 columns and 80225 nonzeros
Variable types: 0 continuous, 14464 integer (14464 binary)
Coefficient statistics:
  Matrix range     [1e+00, 9e+00]
  Objective range  [1e+00, 1e+00]
  Bounds range     [1e+00, 1e+00]
  RHS range        [1e+00, 5e+01]
Presolve removed 28741 rows and 14390 columns
Presolve time: 0.03s
Presolved: 133 rows, 74 columns, 817 nonzeros
Variable types: 0 continuous, 74 integer (74 binary)

Root relaxation: objective 7.000000e+00, 24 iterations, 0.00 seconds

    Nodes    |    Current Node    |     Objective Bounds      |     Work
 Expl Unexpl |  Obj  Depth IntInf | Incumbent    BestBd   Gap | It/Node Time

     0     0    7.00000    0    2          -    7.00000      -     -    0s
     0     0    7.00000    0    2          -    7.00000      -     -    0s
     0     0    7.00000    0    3          -    7.00000      -     -    0s
     0     0    7.00000    0    3          -    7.00000      -     -    0s
     0     0    7.00000    0    2          -    7.00000      -     -    0s
     0     0    7.00000    0    2          -    7.00000      -     -    0s
     0     2    7.00000    0    2          -    7.00000      -     -    0s
*    7     0               3       6.0000000    7.00000  16.7%   3.7    0s

Cutting planes:
  MIR: 2
  Lazy constraints: 16

Explored 10 nodes (123 simplex iterations) in 0.21 seconds
Thread count was 12 (of 12 available processors)

Solution count 1: 6 
Pool objective bound 6

Optimal solution found (tolerance 1.00e-04)
Best objective 6.000000000000e+00, best bound 6.000000000000e+00, gap 0.0000%
Optimize a model with 28874 rows, 14464 columns and 80225 nonzeros
Variable types: 0 continuous, 14464 integer (14464 binary)
Coefficient statistics:
  Matrix range     [1e+00, 9e+00]
  Objective range  [3e-01, 7e-01]
  Bounds range     [1e+00, 1e+00]
  RHS range        [1e+00, 5e+01]
Presolve removed 28741 rows and 14390 columns
Presolve time: 0.03s
Presolved: 133 rows, 74 columns, 817 nonzeros

Loaded MIP start with objective -1.11022e-16

Variable types: 0 continuous, 74 integer (74 binary)

Root relaxation: objective 1.000000e+00, 9 iterations, 0.00 seconds

    Nodes    |    Current Node    |     Objective Bounds      |     Work
 Expl Unexpl |  Obj  Depth IntInf | Incumbent    BestBd   Gap | It/Node Time

     0     0    1.00000    0    2   -0.00000    1.00000      -     -    0s
     0     0    1.00000    0    2   -0.00000    1.00000      -     -    0s
     0     0    1.00000    0    4   -0.00000    1.00000      -     -    0s
     0     0    1.00000    0    4   -0.00000    1.00000      -     -    0s
     0     2    1.00000    0    4   -0.00000    1.00000      -     -    0s

Cutting planes:
  Gomory: 3
  Lazy constraints: 15

Explored 10 nodes (162 simplex iterations) in 0.20 seconds
Thread count was 12 (of 12 available processors)

Solution count 1: -1.11022e-16 
Pool objective bound -1.11022e-16

Optimal solution found (tolerance 1.00e-04)
Best objective -1.110223024625e-16, best bound -1.110223024625e-16, gap -
